SECTION Graph 
Nodes 844
Edges 1691
E 1 762 53
E 1 775 21
E 2 3 14
E 2 776 21
E 3 4 1
E 3 777 21
E 4 778 21
E 5 6 1
E 5 384 17
E 6 7 14
E 6 386 17
E 7 8 1
E 7 422 17
E 8 428 17
E 8 463 30
E 9 10 1
E 9 744 53
E 9 775 2
E 10 11 14
E 10 776 2
E 11 12 1
E 11 777 2
E 12 778 2
E 13 14 1
E 13 633 19
E 13 636 10
E 14 15 14
E 14 634 19
E 15 16 1
E 15 639 19
E 16 640 19
E 17 18 1
E 17 624 7
E 17 629 2
E 17 633 4
E 18 19 14
E 18 631 2
E 18 634 4
E 19 20 1
E 19 637 2
E 19 639 4
E 20 638 2
E 20 640 4
E 21 22 1
E 21 592 7
E 21 604 2
E 21 615 4
E 22 23 14
E 22 606 2
E 22 616 4
E 23 24 1
E 23 620 2
E 23 625 4
E 24 622 2
E 24 627 4
E 25 26 1
E 25 510 19
E 25 539 7
E 25 576 4
E 26 27 14
E 26 515 19
E 26 579 4
E 27 28 1
E 27 546 19
E 27 598 4
E 28 551 19
E 28 601 4
E 29 30 1
E 29 442 19
E 29 472 7
E 29 510 4
E 30 31 14
E 30 450 19
E 30 515 4
E 31 32 1
E 31 480 19
E 31 546 4
E 32 486 19
E 32 551 4
E 33 34 1
E 33 399 7
E 33 442 6
E 34 35 14
E 34 450 6
E 35 36 1
E 35 480 6
E 36 486 6
E 37 38 1
E 37 600 7
E 37 612 1
E 37 626 16
E 38 39 14
E 38 614 1
E 38 628 16
E 39 40 1
E 39 623 4
E 39 635 16
E 40 624 4
E 40 633 7
E 40 636 16
E 41 42 1
E 41 549 7
E 41 563 4
E 41 603 17
E 42 43 14
E 42 568 4
E 42 605 17
E 43 44 1
E 43 590 4
E 43 619 17
E 44 592 4
E 44 615 7
E 44 621 17
E 45 46 1
E 45 485 7
E 45 502 4
E 45 514 1
E 46 47 14
E 46 506 4
E 46 519 1
E 47 48 1
E 47 537 4
E 47 550 1
E 48 539 4
E 48 557 1
E 48 576 7
E 49 50 1
E 49 415 7
E 49 431 4
E 49 502 19
E 50 51 14
E 50 433 4
E 50 506 19
E 51 52 1
E 51 470 4
E 51 537 19
E 52 472 4
E 52 510 7
E 52 539 19
E 53 54 1
E 53 359 7
E 53 362 6
E 53 402 12
E 54 55 14
E 54 365 6
E 54 404 12
E 55 56 1
E 55 395 6
E 55 459 12
E 56 399 6
E 56 442 7
E 56 461 12
E 57 58 1
E 57 336 7
E 57 356 14
E 58 59 14
E 58 357 14
E 59 60 1
E 59 388 14
E 60 389 14
E 61 62 1
E 61 577 15
E 61 584 7
E 62 63 14
E 62 580 15
E 63 64 1
E 63 599 15
E 64 602 15
E 64 626 7
E 65 66 1
E 65 343 12
E 65 376 11
E 66 67 14
E 66 345 12
E 66 381 11
E 67 68 1
E 67 358 12
E 67 410 11
E 68 359 12
E 68 402 7
E 68 415 11
E 69 70 1
E 69 325 14
E 69 343 11
E 70 71 14
E 70 327 14
E 70 345 11
E 71 72 1
E 71 335 14
E 71 358 11
E 72 336 14
E 72 356 7
E 72 359 11
E 73 74 1
E 73 325 9
E 74 75 14
E 74 327 9
E 75 76 1
E 75 335 9
E 76 336 9
E 77 78 1
E 77 767 18
E 77 772 7
E 78 79 14
E 78 769 18
E 79 80 1
E 79 773 18
E 80 774 18
E 81 82 1
E 81 753 18
E 81 760 7
E 81 767 5
E 82 83 14
E 82 755 18
E 82 769 5
E 83 84 1
E 83 763 18
E 83 773 5
E 84 764 18
E 84 774 5
E 85 86 1
E 85 698 122
E 85 710 7
E 85 718 32
E 86 87 14
E 86 700 122
E 86 720 32
E 87 88 1
E 87 702 122
E 87 726 32
E 88 704 122
E 88 728 32
E 89 90 1
E 89 91 1
E 89 475 7
E 89 490 4
E 90 496 4
E 90 508 1
E 90 540 14
E 91 280 1
E 91 477 7
E 91 508 1
E 92 93 1
E 92 280 1
E 92 489 7
E 92 517 1
E 93 94 14
E 93 512 1
E 93 521 1
E 94 95 1
E 94 543 1
E 94 553 1
E 95 548 1
E 95 558 1
E 95 577 7
E 96 97 1
E 96 98 1
E 96 340 30
E 97 385 1
E 97 414 14
E 98 99 2
E 98 342 30
E 98 385 1
E 99 100 1
E 99 369 8
E 99 390 4
E 100 101 14
E 100 385 2
E 100 394 4
E 101 102 1
E 101 420 2
E 101 440 4
E 102 427 2
E 102 447 4
E 102 458 7
E 103 104 1
E 103 294 30
E 103 297 12
E 104 105 14
E 104 298 12
E 105 106 1
E 105 299 12
E 106 300 12
E 107 108 1
E 107 288 30
E 107 291 14
E 107 297 9
E 108 109 14
E 108 292 14
E 108 298 9
E 109 110 1
E 109 295 14
E 109 299 9
E 110 296 14
E 110 300 9
E 111 112 1
E 111 284 30
E 111 291 9
E 112 113 14
E 112 292 9
E 113 114 1
E 113 295 9
E 114 296 9
E 115 116 1
E 115 765 5
E 116 117 14
E 116 766 5
E 117 118 1
E 117 771 5
E 118 772 5
E 119 120 1
E 119 747 7
E 119 749 5
E 119 757 9
E 120 121 14
E 120 750 5
E 120 758 9
E 121 122 1
E 121 759 5
E 121 768 9
E 122 760 5
E 122 767 7
E 122 770 9
E 123 124 1
E 123 727 7
E 123 729 2
E 123 739 9
E 124 125 14
E 124 731 2
E 124 740 9
E 125 126 1
E 125 741 2
E 125 754 9
E 126 743 2
E 126 753 7
E 126 756 9
E 127 128 1
E 127 714 22
E 127 715 2
E 127 721 9
E 128 129 14
E 128 716 2
E 128 722 9
E 129 130 1
E 129 723 2
E 129 736 9
E 130 724 2
E 130 734 7
E 130 738 9
E 131 132 1
E 131 705 32
E 131 712 7
E 131 715 21
E 132 133 14
E 132 706 32
E 132 716 21
E 133 134 1
E 133 709 32
E 133 723 21
E 134 710 32
E 134 718 7
E 134 724 21
E 135 136 1
E 135 137 1
E 135 177 7
E 135 350 2
E 136 352 2
E 136 355 1
E 136 375 14
E 137 138 2
E 137 346 7
E 137 355 1
E 138 139 1
E 138 348 7
E 138 361 6
E 139 140 14
E 139 355 2
E 139 364 6
E 140 141 1
E 140 379 2
E 140 392 6
E 141 383 2
E 141 397 6
E 141 400 7
E 142 143 1
E 142 733 9
E 143 144 14
E 143 735 9
E 144 145 1
E 144 745 9
E 145 747 9
E 145 757 7
E 146 147 1
E 146 717 9
E 146 733 14
E 147 148 14
E 147 719 9
E 147 735 14
E 148 149 1
E 148 725 9
E 148 745 14
E 149 727 9
E 149 739 7
E 149 747 14
E 150 151 1
E 150 713 9
E 150 717 14
E 151 152 14
E 151 714 9
E 151 719 14
E 152 153 1
E 152 711 32
E 152 725 14
E 153 712 32
E 153 721 7
E 153 727 14
E 154 160 20
E 154 667 1
E 154 668 1
E 155 156 1
E 155 197 11
E 155 667 1
E 155 689 27
E 156 669 1
E 156 676 14
E 156 690 27
E 157 158 1
E 157 669 14
E 157 674 1
E 157 676 1
E 158 675 1
E 158 678 1
E 158 686 8
E 159 167 227
E 159 644 7
E 159 650 1
E 159 651 1
E 160 161 1
E 160 647 7
E 160 650 1
E 161 652 1
E 161 659 14
E 161 668 20
E 162 163 1
E 162 652 14
E 162 657 1
E 162 659 1
E 163 658 1
E 163 660 1
E 163 677 22
E 164 165 1
E 164 166 1
E 164 377 1
E 165 382 1
E 165 387 1
E 165 416 14
E 166 167 2
E 166 387 1
E 167 168 1
E 168 169 14
E 168 387 2
E 168 651 227
E 169 170 1
E 169 423 2
E 169 657 227
E 170 429 2
E 170 462 8
E 170 658 227
E 171 172 1
E 171 173 1
E 171 324 7
E 172 330 1
E 172 349 22
E 173 174 2
E 173 326 7
E 173 330 1
E 174 175 1
E 174 329 7
E 174 331 1
E 175 176 14
E 175 330 2
E 175 332 1
E 176 177 1
E 176 339 6
E 176 344 1
E 177 342 6
E 177 346 1
E 178 179 1
E 178 285 9
E 178 289 12
E 179 180 14
E 179 286 9
E 179 290 12
E 180 181 1
E 180 287 9
E 180 293 12
E 181 288 9
E 181 294 12
E 181 297 30
E 182 183 1
E 182 281 9
E 182 285 14
E 183 184 14
E 183 282 9
E 183 286 14
E 184 185 1
E 184 283 9
E 184 287 14
E 185 284 9
E 185 288 14
E 185 291 30
E 186 187 1
E 186 281 14
E 187 188 14
E 187 282 14
E 188 189 1
E 188 283 14
E 189 284 14
E 190 191 1
E 190 665 7
E 190 671 1
E 190 697 41
E 191 192 14
E 191 673 1
E 191 699 41
E 192 193 1
E 192 681 1
E 192 701 41
E 193 683 1
E 193 689 7
E 193 703 41
E 194 195 1
E 194 198 266
E 194 671 22
E 195 196 14
E 195 673 22
E 196 197 1
E 196 645 26
E 196 681 22
E 197 647 26
E 197 683 22
E 197 684 22
E 198 199 1
E 198 202 23
E 199 200 14
E 199 203 23
E 200 201 1
E 200 204 23
E 200 643 238
E 201 205 23
E 201 360 7
E 201 644 238
E 202 203 1
E 202 320 9
E 203 204 14
E 203 321 9
E 204 205 1
E 204 328 9
E 205 329 9
E 205 338 7
E 206 207 1
E 206 229 178
E 206 316 11
E 207 208 14
E 207 318 11
E 208 209 1
E 208 322 11
E 209 324 11
E 209 337 29
E 210 211 1
E 210 666 24
E 210 670 19
E 211 212 14
E 211 672 19
E 212 213 1
E 212 680 19
E 213 682 19
E 213 697 7
E 214 215 1
E 214 641 22
E 214 654 2
E 215 216 14
E 215 642 22
E 215 656 2
E 216 217 1
E 216 648 22
E 216 664 2
E 217 649 22
E 217 666 2
E 217 670 7
E 218 219 1
E 218 641 1
E 219 220 14
E 219 642 1
E 220 221 1
E 220 648 1
E 221 649 1
E 221 661 22
E 222 223 1
E 222 267 210
E 223 224 14
E 224 225 1
E 225 654 76
E 226 227 1
E 226 233 12
E 227 228 14
E 228 229 1
E 230 231 1
E 230 311 95
E 231 312 95
E 231 315 8
E 232 233 1
E 232 313 95
E 232 315 6
E 233 314 95
E 234 235 1
E 234 301 3
E 234 307 78
E 235 302 3
E 235 304 8
E 235 308 78
E 236 237 1
E 236 304 6
E 236 305 3
E 236 309 78
E 237 306 3
E 237 310 78
E 238 239 1
E 238 301 106
E 239 240 14
E 239 302 106
E 240 241 1
E 240 305 106
E 241 289 397
E 241 306 106
E 242 243 18
E 242 304 78
E 242 308 8
E 242 309 6
E 243 312 8
E 243 313 6
E 243 315 95
E 244 245 1
E 245 246 14
E 246 247 1
E 247 301 7
E 248 249 1
E 248 252 23
E 249 250 14
E 249 253 23
E 250 251 1
E 250 254 23
E 251 255 23
E 252 253 1
E 252 256 23
E 252 609 30
E 253 254 14
E 253 257 23
E 254 255 1
E 254 258 23
E 255 259 23
E 256 257 1
E 256 565 30
E 256 617 1
E 257 258 14
E 257 618 1
E 258 259 1
E 258 630 1
E 259 632 1
E 260 261 1
E 260 264 23
E 260 516 35
E 260 617 22
E 261 262 14
E 261 265 23
E 261 618 22
E 262 263 1
E 262 266 23
E 262 630 22
E 263 267 23
E 263 632 22
E 264 265 1
E 265 266 14
E 266 267 1
E 268 269 1
E 268 428 30
E 268 463 17
E 268 523 1
E 269 270 14
E 269 466 17
E 269 526 1
E 270 271 1
E 270 511 17
E 270 561 1
E 271 516 17
E 271 565 1
E 271 617 30
E 272 273 1
E 272 276 23
E 273 274 14
E 273 277 23
E 274 275 1
E 274 278 23
E 275 279 23
E 275 581 35
E 276 277 1
E 276 384 6
E 277 278 14
E 277 386 6
E 278 279 1
E 278 422 6
E 279 428 6
E 279 523 35
E 280 482 7
E 280 512 1
E 281 282 1
E 282 283 14
E 283 284 1
E 285 286 1
E 286 287 14
E 287 288 1
E 289 290 1
E 290 293 14
E 291 292 1
E 292 295 14
E 293 294 1
E 295 296 1
E 297 298 1
E 298 299 14
E 299 300 1
E 301 302 1
E 302 303 8
E 303 304 3
E 303 305 6
E 305 306 1
E 307 308 1
E 307 311 18
E 308 312 18
E 309 310 1
E 309 313 18
E 310 314 18
E 311 312 1
E 313 314 1
E 316 317 1
E 316 318 1
E 317 319 1
E 317 320 2
E 318 319 1
E 318 322 14
E 319 321 2
E 319 323 14
E 320 321 1
E 321 328 14
E 322 323 1
E 322 324 1
E 323 326 1
E 323 328 2
E 324 326 1
E 325 327 1
E 326 329 2
E 327 335 14
E 328 329 1
E 330 350 22
E 331 332 1
E 331 333 2
E 332 334 2
E 332 344 14
E 333 334 1
E 333 338 6
E 334 341 6
E 334 347 14
E 335 336 1
E 337 339 1
E 337 340 1
E 338 341 1
E 338 360 23
E 339 342 1
E 340 342 1
E 341 353 14
E 341 363 23
E 343 345 1
E 344 346 1
E 344 347 2
E 345 358 14
E 346 348 2
E 347 348 1
E 347 353 6
E 348 354 6
E 349 350 1
E 349 351 1
E 350 352 1
E 351 352 1
E 351 366 14
E 352 368 14
E 353 354 1
E 353 391 23
E 354 361 7
E 354 396 23
E 355 379 14
E 356 357 1
E 356 362 5
E 357 365 5
E 357 388 14
E 358 359 1
E 360 363 1
E 360 367 4
E 361 364 1
E 361 418 23
E 362 365 1
E 363 371 4
E 363 391 14
E 364 392 14
E 364 425 23
E 365 395 14
E 366 368 1
E 366 369 1
E 367 370 1
E 367 371 1
E 368 372 1
E 368 375 2
E 369 372 1
E 370 373 1
E 370 374 1
E 371 374 1
E 371 403 14
E 372 380 2
E 373 377 1
E 373 378 1
E 374 378 1
E 374 405 14
E 375 379 1
E 375 380 1
E 376 381 1
E 376 441 23
E 377 382 1
E 378 382 1
E 378 407 14
E 379 383 1
E 380 383 1
E 380 390 7
E 381 410 14
E 381 449 23
E 382 411 14
E 383 393 7
E 384 386 1
E 385 420 14
E 386 422 14
E 387 423 14
E 388 389 1
E 388 395 5
E 389 399 5
E 390 393 1
E 390 394 1
E 391 396 1
E 391 403 4
E 392 397 1
E 392 409 6
E 393 398 1
E 393 400 2
E 394 398 1
E 394 440 14
E 395 399 1
E 396 406 4
E 396 418 7
E 397 413 6
E 397 419 7
E 398 401 2
E 398 446 14
E 400 401 1
E 400 419 6
E 401 426 6
E 401 455 14
E 402 404 1
E 402 431 7
E 403 405 1
E 403 406 1
E 404 433 7
E 404 459 14
E 405 407 1
E 405 408 1
E 406 408 1
E 406 434 7
E 407 411 1
E 407 412 1
E 408 412 1
E 408 435 7
E 409 413 1
E 409 464 17
E 410 415 1
E 410 479 23
E 411 416 1
E 411 417 1
E 412 417 1
E 412 437 7
E 413 439 7
E 413 467 17
E 414 420 1
E 414 421 1
E 415 485 23
E 416 423 1
E 416 424 1
E 417 424 1
E 417 443 7
E 418 425 1
E 418 434 4
E 419 426 1
E 419 430 2
E 420 427 1
E 421 427 1
E 421 448 7
E 422 428 1
E 423 429 1
E 424 429 1
E 424 488 22
E 425 436 4
E 425 464 14
E 426 432 2
E 426 465 14
E 427 453 7
E 429 494 22
E 430 432 1
E 430 439 4
E 431 433 1
E 432 445 4
E 432 469 14
E 433 470 14
E 434 435 1
E 434 436 1
E 435 437 1
E 435 438 1
E 436 438 1
E 436 473 14
E 437 443 1
E 437 444 1
E 438 444 1
E 438 474 14
E 439 445 1
E 439 490 17
E 440 446 1
E 440 447 1
E 441 448 1
E 441 449 1
E 442 450 1
E 443 451 1
E 444 451 1
E 444 476 14
E 445 478 14
E 445 496 17
E 446 452 1
E 446 455 2
E 447 452 1
E 448 453 1
E 448 454 1
E 449 454 1
E 449 479 14
E 450 480 14
E 451 462 4
E 451 481 14
E 452 457 2
E 453 456 1
E 453 458 2
E 454 456 1
E 454 484 14
E 455 457 1
E 455 465 6
E 456 460 2
E 456 492 14
E 457 468 6
E 458 460 1
E 458 491 13
E 459 461 1
E 459 470 7
E 460 497 13
E 460 501 14
E 461 472 7
E 462 487 11
E 462 503 14
E 463 466 1
E 464 467 1
E 464 473 4
E 465 468 1
E 465 469 2
E 466 511 14
E 467 475 4
E 467 490 7
E 468 471 2
E 468 491 7
E 469 471 1
E 469 478 4
E 470 472 1
E 471 483 4
E 471 500 7
E 473 474 1
E 473 475 1
E 474 476 1
E 474 477 1
E 475 477 1
E 476 481 1
E 476 482 1
E 477 482 1
E 478 483 1
E 478 532 17
E 479 484 1
E 479 485 1
E 480 486 1
E 481 488 1
E 481 489 1
E 482 489 1
E 483 509 7
E 483 534 17
E 484 492 1
E 484 493 1
E 485 493 1
E 487 530 14
E 487 686 239
E 488 494 1
E 488 495 1
E 489 495 1
E 490 496 1
E 491 497 1
E 491 500 2
E 492 498 1
E 492 501 2
E 493 498 1
E 493 514 7
E 494 499 1
E 494 503 2
E 495 499 1
E 495 517 7
E 496 532 14
E 497 504 2
E 497 533 14
E 498 505 2
E 498 518 7
E 499 507 2
E 499 520 7
E 500 504 1
E 500 509 4
E 501 505 1
E 501 533 13
E 502 506 1
E 503 507 1
E 503 530 11
E 504 513 4
E 504 563 22
E 505 525 7
E 505 535 13
E 506 537 14
E 507 527 7
E 507 531 11
E 508 512 1
E 508 541 14
E 509 513 1
E 509 554 17
E 510 515 1
E 511 516 1
E 512 543 14
E 513 545 14
E 513 559 17
E 514 518 1
E 514 519 1
E 515 546 14
E 517 520 1
E 517 521 1
E 518 522 1
E 518 525 2
E 519 522 1
E 519 550 14
E 520 524 1
E 520 527 2
E 521 524 1
E 521 553 14
E 522 528 2
E 522 556 14
E 523 526 1
E 523 581 23
E 524 529 2
E 525 528 1
E 525 555 13
E 526 561 14
E 526 582 23
E 527 529 1
E 527 547 11
E 528 560 13
E 528 564 14
E 529 552 11
E 529 566 14
E 530 531 1
E 530 677 217
E 531 547 7
E 531 679 217
E 532 534 1
E 532 536 2
E 533 535 1
E 533 545 6
E 534 538 2
E 534 554 7
E 535 549 6
E 535 555 7
E 536 538 1
E 536 540 2
E 537 539 1
E 538 542 2
E 538 562 7
E 540 541 1
E 540 542 1
E 541 543 1
E 541 544 1
E 542 544 1
E 542 571 7
E 543 548 1
E 544 548 1
E 544 572 7
E 545 549 1
E 545 585 17
E 546 551 1
E 547 552 1
E 547 687 217
E 548 574 7
E 549 587 17
E 550 556 1
E 550 557 1
E 552 583 14
E 552 688 217
E 553 558 1
E 553 566 3
E 554 559 1
E 554 562 2
E 555 560 1
E 555 563 2
E 556 564 2
E 557 569 3
E 558 570 3
E 559 567 2
E 559 585 14
E 560 568 2
E 560 586 14
E 561 565 1
E 561 607 23
E 562 567 1
E 562 571 2
E 563 568 1
E 564 569 1
E 564 586 13
E 565 609 23
E 566 570 1
E 566 583 11
E 567 573 2
E 567 589 14
E 568 590 14
E 569 588 13
E 570 584 11
E 571 572 1
E 571 573 1
E 572 574 1
E 572 575 1
E 573 575 1
E 573 593 14
E 574 577 1
E 574 578 1
E 575 578 1
E 575 594 14
E 576 579 1
E 576 604 17
E 577 580 1
E 578 580 1
E 578 596 14
E 579 598 14
E 579 606 17
E 580 599 14
E 581 582 1
E 582 607 14
E 583 584 1
E 583 693 217
E 584 694 217
E 585 587 1
E 585 589 2
E 586 588 1
E 586 590 2
E 587 591 2
E 587 603 7
E 588 592 2
E 588 604 7
E 589 591 1
E 589 593 2
E 590 592 1
E 591 595 2
E 591 608 7
E 593 594 1
E 593 595 1
E 594 596 1
E 594 597 1
E 595 597 1
E 595 611 7
E 596 599 1
E 596 600 1
E 597 600 1
E 597 612 7
E 598 601 1
E 598 620 17
E 599 602 1
E 600 602 1
E 601 622 17
E 603 605 1
E 603 608 2
E 604 606 1
E 605 610 2
E 605 619 14
E 606 620 14
E 607 609 1
E 608 610 1
E 608 611 2
E 610 613 2
E 610 623 14
E 611 612 1
E 611 613 1
E 612 614 1
E 613 614 1
E 615 616 1
E 615 629 17
E 616 625 14
E 616 631 17
E 617 618 1
E 618 630 14
E 619 621 1
E 619 623 2
E 620 622 1
E 621 624 2
E 621 629 7
E 623 624 1
E 625 627 1
E 625 637 17
E 626 628 1
E 627 638 17
E 628 635 14
E 629 631 1
E 630 632 1
E 631 637 14
E 633 634 1
E 634 639 14
E 635 636 1
E 637 638 1
E 639 640 1
E 641 642 1
E 642 648 14
E 643 644 1
E 643 645 2
E 644 646 1
E 645 647 1
E 646 647 1
E 646 650 7
E 648 649 1
E 649 653 7
E 650 652 1
E 651 652 1
E 651 657 14
E 653 655 1
E 653 670 22
E 654 656 1
E 655 662 14
E 655 672 22
E 656 664 14
E 657 658 1
E 659 660 1
E 659 674 20
E 660 675 20
E 661 662 1
E 661 663 1
E 662 665 1
E 662 680 22
E 663 665 1
E 663 671 7
E 664 666 1
E 665 682 22
E 667 669 1
E 668 669 1
E 668 674 14
E 670 672 1
E 671 673 1
E 672 680 14
E 673 681 14
E 674 675 1
E 676 678 1
E 676 684 4
E 677 679 1
E 677 691 22
E 678 685 4
E 679 687 7
E 679 692 22
E 680 682 1
E 681 683 1
E 684 685 1
E 684 695 23
E 685 696 23
E 686 691 14
E 686 706 122
E 687 688 1
E 687 698 22
E 688 693 14
E 688 700 22
E 689 690 1
E 689 707 126
E 690 695 14
E 690 708 126
E 691 692 1
E 691 709 122
E 692 698 7
E 692 710 122
E 693 694 1
E 693 702 22
E 694 704 22
E 695 696 1
E 695 711 126
E 696 705 101
E 696 712 126
E 697 699 1
E 698 700 1
E 699 701 14
E 700 702 14
E 701 703 1
E 702 704 1
E 703 705 83
E 703 707 92
E 705 706 1
E 706 709 14
E 707 708 1
E 707 713 23
E 708 711 14
E 708 714 23
E 709 710 1
E 711 712 1
E 713 714 1
E 715 716 1
E 716 723 14
E 717 719 1
E 718 720 1
E 718 730 21
E 719 725 14
E 720 726 14
E 720 732 21
E 721 722 1
E 721 729 12
E 722 731 12
E 722 736 14
E 723 724 1
E 724 730 7
E 725 727 1
E 726 728 1
E 726 742 21
E 728 744 21
E 729 731 1
E 730 732 1
E 730 734 2
E 731 741 14
E 732 737 2
E 732 742 14
E 733 735 1
E 734 737 1
E 734 751 21
E 735 745 14
E 736 738 1
E 736 741 12
E 737 746 14
E 737 752 21
E 738 743 12
E 739 740 1
E 739 749 9
E 740 750 9
E 740 754 14
E 741 743 1
E 742 744 1
E 742 746 2
E 743 751 7
E 744 748 2
E 745 747 1
E 746 748 1
E 746 761 21
E 748 762 21
E 748 775 53
E 749 750 1
E 750 759 14
E 751 752 1
E 751 753 2
E 752 755 2
E 752 761 14
E 753 755 1
E 754 756 1
E 754 759 9
E 755 763 14
E 756 760 9
E 757 758 1
E 757 765 9
E 758 766 9
E 758 768 14
E 759 760 1
E 761 762 1
E 761 763 2
E 762 764 2
E 763 764 1
E 765 766 1
E 766 771 14
E 767 769 1
E 768 770 1
E 768 771 9
E 769 773 14
E 770 772 9
E 771 772 1
E 773 774 1
E 775 776 1
E 776 777 14
E 777 778 1
E 1 779 100000
E 2 779 100000
E 3 779 100000
E 4 779 100000
E 5 780 100000
E 6 780 100000
E 7 780 100000
E 8 780 100000
E 9 781 100000
E 10 781 100000
E 11 781 100000
E 12 781 100000
E 13 782 100000
E 14 782 100000
E 15 782 100000
E 16 782 100000
E 17 783 100000
E 18 783 100000
E 19 783 100000
E 20 783 100000
E 21 784 100000
E 22 784 100000
E 23 784 100000
E 24 784 100000
E 25 785 100000
E 26 785 100000
E 27 785 100000
E 28 785 100000
E 29 786 100000
E 30 786 100000
E 31 786 100000
E 32 786 100000
E 33 787 100000
E 34 787 100000
E 35 787 100000
E 36 787 100000
E 37 788 100000
E 38 788 100000
E 39 788 100000
E 40 788 100000
E 41 789 100000
E 42 789 100000
E 43 789 100000
E 44 789 100000
E 45 790 100000
E 46 790 100000
E 47 790 100000
E 48 790 100000
E 49 791 100000
E 50 791 100000
E 51 791 100000
E 52 791 100000
E 53 792 100000
E 54 792 100000
E 55 792 100000
E 56 792 100000
E 57 793 100000
E 58 793 100000
E 59 793 100000
E 60 793 100000
E 61 794 100000
E 62 794 100000
E 63 794 100000
E 64 794 100000
E 65 795 100000
E 66 795 100000
E 67 795 100000
E 68 795 100000
E 69 796 100000
E 70 796 100000
E 71 796 100000
E 72 796 100000
E 73 797 100000
E 74 797 100000
E 75 797 100000
E 76 797 100000
E 77 798 100000
E 78 798 100000
E 79 798 100000
E 80 798 100000
E 81 799 100000
E 82 799 100000
E 83 799 100000
E 84 799 100000
E 85 800 100000
E 86 800 100000
E 87 800 100000
E 88 800 100000
E 89 801 100000
E 90 801 100000
E 91 801 100000
E 92 801 100000
E 93 801 100000
E 94 801 100000
E 95 801 100000
E 96 802 100000
E 97 802 100000
E 98 802 100000
E 99 802 100000
E 100 802 100000
E 101 802 100000
E 102 802 100000
E 103 803 100000
E 104 803 100000
E 105 803 100000
E 106 803 100000
E 107 804 100000
E 108 804 100000
E 109 804 100000
E 110 804 100000
E 111 805 100000
E 112 805 100000
E 113 805 100000
E 114 805 100000
E 115 806 100000
E 116 806 100000
E 117 806 100000
E 118 806 100000
E 119 807 100000
E 120 807 100000
E 121 807 100000
E 122 807 100000
E 123 808 100000
E 124 808 100000
E 125 808 100000
E 126 808 100000
E 127 809 100000
E 128 809 100000
E 129 809 100000
E 130 809 100000
E 131 810 100000
E 132 810 100000
E 133 810 100000
E 134 810 100000
E 135 811 100000
E 136 811 100000
E 137 811 100000
E 138 811 100000
E 139 811 100000
E 140 811 100000
E 141 811 100000
E 142 812 100000
E 143 812 100000
E 144 812 100000
E 145 812 100000
E 146 813 100000
E 147 813 100000
E 148 813 100000
E 149 813 100000
E 150 814 100000
E 151 814 100000
E 152 814 100000
E 153 814 100000
E 154 815 100000
E 155 815 100000
E 156 815 100000
E 157 815 100000
E 158 815 100000
E 159 816 100000
E 160 816 100000
E 161 816 100000
E 162 816 100000
E 163 816 100000
E 164 817 100000
E 165 817 100000
E 166 817 100000
E 167 817 100000
E 168 817 100000
E 169 817 100000
E 170 817 100000
E 171 818 100000
E 172 818 100000
E 173 818 100000
E 174 818 100000
E 175 818 100000
E 176 818 100000
E 177 818 100000
E 178 819 100000
E 179 819 100000
E 180 819 100000
E 181 819 100000
E 182 820 100000
E 183 820 100000
E 184 820 100000
E 185 820 100000
E 186 821 100000
E 187 821 100000
E 188 821 100000
E 189 821 100000
E 190 822 100000
E 191 822 100000
E 192 822 100000
E 193 822 100000
E 194 823 100000
E 195 823 100000
E 196 823 100000
E 197 823 100000
E 198 824 100000
E 199 824 100000
E 200 824 100000
E 201 824 100000
E 202 825 100000
E 203 825 100000
E 204 825 100000
E 205 825 100000
E 206 826 100000
E 207 826 100000
E 208 826 100000
E 209 826 100000
E 210 827 100000
E 211 827 100000
E 212 827 100000
E 213 827 100000
E 214 828 100000
E 215 828 100000
E 216 828 100000
E 217 828 100000
E 218 829 100000
E 219 829 100000
E 220 829 100000
E 221 829 100000
E 222 830 100000
E 223 830 100000
E 224 830 100000
E 225 830 100000
E 226 831 100000
E 227 831 100000
E 228 831 100000
E 229 831 100000
E 230 832 100000
E 231 832 100000
E 232 832 100000
E 233 832 100000
E 234 833 100000
E 235 833 100000
E 236 833 100000
E 237 833 100000
E 238 834 100000
E 239 834 100000
E 240 834 100000
E 241 834 100000
E 242 835 100000
E 243 835 100000
E 244 836 100000
E 245 836 100000
E 246 836 100000
E 247 836 100000
E 248 837 100000
E 249 837 100000
E 250 837 100000
E 251 837 100000
E 252 838 100000
E 253 838 100000
E 254 838 100000
E 255 838 100000
E 256 839 100000
E 257 839 100000
E 258 839 100000
E 259 839 100000
E 260 840 100000
E 261 840 100000
E 262 840 100000
E 263 840 100000
E 264 841 100000
E 265 841 100000
E 266 841 100000
E 267 841 100000
E 268 842 100000
E 269 842 100000
E 270 842 100000
E 271 842 100000
E 272 843 100000
E 273 843 100000
E 274 843 100000
E 275 843 100000
E 276 844 100000
E 277 844 100000
E 278 844 100000
E 279 844 100000
E 280 801 100000
END 

SECTION Terminals 
Terminals 66
TP 779 812
TP 780 813
TP 781 814
TP 782 815
TP 783 816
TP 784 817
TP 785 818
TP 786 819
TP 787 820
TP 788 821
TP 789 822
TP 790 823
TP 791 824
TP 792 825
TP 793 826
TP 794 827
TP 795 828
TP 796 829
TP 797 830
TP 798 831
TP 799 832
TP 800 833
TP 801 834
TP 802 835
TP 803 836
TP 804 837
TP 805 838
TP 806 839
TP 807 840
TP 808 841
TP 809 842
TP 810 843
TP 811 844
END 
